HUN,8,6,66
3,34,5,86,1,87,2,7,0,51,4,26
5,27,3,38,4,49,0,100,1,4,2,12
0,77,5,15,1,36,2,31,3,2,4,16
0,90,1,88,4,27,2,94,5,94,3,86
2,74,1,37,4,95,5,87,0,73,3,4
4,38,5,44,2,80,3,42,1,88,0,19
4,43,0,24,2,38,3,4,1,33,5,50
5,62,2,9,3,84,4,85,1,96,0,81
